     30      2      8    554     12
     60     56
     10      3     12     28      4     17     28     22     15     24      1     19      3     13      5     23      2     12      0     27     23      4     18     29      3     13     11      5      6      2      0      4     14      5     10     25      1     18     24     13     22     12     10     27     28     18      5     13      3      9     16      4     23     17     21      1     16     23     23     19     24     17     21     13      6     18      4      1      3      8     14     12      2     28     10      4      5     21     24     23     19      8     27     10     28      9      4     19      8     13     12     20     25     26     22      2      8     12     23     11     29      1      0     28     18     25     23      9     13     22     28      9     19     18     25      9     22     13      7     21     18      0     25     23     28     12      4      5     23      7     19     17     24      5     27     23     19      0     19      1     27      0     26     10     28     17     14      1      8      6     28      0     13     16     29      8      2      8     25     16     11     27     26      4      6      2     27     13     21     20      5     12      2     23     17     24      7      9     15     28
      4     13     42     82     62     24     32     55     -8     33     10      6     71     71     13     22     24     29    -14     70      2     -8    -10     32     49     18     36     25      8     57     22     30     81     45     15      9     61     10     61     60
      5     13     13	    109     62      7      8      6      0      0      0      0      0      0      0      0      0      0     61      0     83      0      0     62      0      0      0     -6     14     78      0     17    -17      0      0     -1      0      0
      6     15     15	    464    195      7      8      8      0      0      0      0      0      0      0      0     14      0      0      0      0      0      0      0      0    168      0      0      0      0      0      0      0      0    -56      0     74     13
      4     10     11	    457    217      5      7      8      0      0      0      0      0      0      0      0      0      0      0      0      0      0      0      0      0      0    -29      0      0      0    100      0      0      0      3      0    186      0
      2     14     15	    471     61      3      8      1      0      0      0      0      0      0      0      0      0      0      0      0      0      0      0      0      0    274    277      0      0      0      0      0      0      0      0      0      0    161
      1     15     14	    164     93      7      8      8      0      0      0      0      0      0      0      0      0    -13      0      0      0      0      0      0      0      0      0      0      0      0      0      0      0      0      0      0    110    -11
      5     10     14	    230     70      7      8      9      0      0      0      0      0      0      0      0      0      0      0    146      0      0      0      0      0      0     16      0      0      0      0    -10      0     64      0      0      0      0
      6     14     10	    107     67      7      7      2      0      0      0      0      0      0      0      0      0      0      0      0      0      0      0     32     73      0      0      0      0      0     85      0      0     76     65      0      0     43
      2     14     15	    267     68      6      8      9      0      0      0      0      0      0      0      0      0    193      0      0      0      0      0      0     35      0      0      0    -36      0      0      0      0      0    139      0      0      0
      6     14     10	    179     87      7      7      1      0     14      0      0      0      0      0      0      0      0     61      0      0      0      0      0      0    131      0      0      0      0      0    141      0    112      0      0    102      0
      5     10     10	    358     75      8      8     10      0      0      0      0    -13      0      0    193      0      0      0      0      0      0      0      0    157      0     33      0      0      0      0     42      0      0      0      0    206      0
      6     13     11	    382    186      6      6      3     61      0      0      0      0      0      0      0     61      0      0    213      0      0      0    157      0      0      0      0      0      0      0      0      0      0    202     95      0      0
      3     10     13	    282     84      7      8      2      0      0      0      0      0    146      0      0      0      0    213      0      0      0      0    -56      0     14      0     36     47      0      0      0      0      0     -1      0    -25      0
      4     11     15	    437    273      6      7      2     83      0      0      0      0      0      0      0      0      0      0      0      0      0      0      0      0      0      0    -41      0      0      0      0      0      0      0      0    -16      0
      6     15     15	    388    115      6      7      9      0      0      0      0      0      0      0      0      0      0      0      0      0      0     90      0      0      0     92    122      0      0      0      0      0      0      0      0      0      0
      2     12     15	    326     53      3      3      9      0      0      0      0      0      0      0      0      0      0      0      0      0     90      0      0      0      0      0      0      0      0      0      0     70    125      0      0      0      0
      1     10     14	    387     80      4      7      8     62      0      0      0      0      0     32      0      0      0    157    -56      0      0      0      0      0      0      0      0      0      0      0      0      0      0      0      0      0      0
      3     10     12	    476     80      3      4      3      0      0      0      0      0      0     73     35      0    157      0      0      0      0      0      0      0      0      0      0      0      0      0      9      0      0      0      0      0     58
      5     14     15	    462    319      7      7      9      0    168      0    274      0      0      0      0    131      0      0     14      0      0      0      0      0      0      0     89     83      0      0      0      0      0      0      0      0      0
      3     10     11	    412    278      5      6      7      0      0    -29    277      0     16      0      0      0     33      0      0      0     92      0      0      0      0      0      0      0     64      0      0      0      0      0      0      0      0
      4     15     11	    296    156      6      6      5     -6      0      0      0      0      0      0      0      0      0      0     36    -41    122      0      0      0     89      0      0      0      0     86      0      0      0     37      0      0      0
      1     13     15	    215     69      8      8      8     14      0      0      0      0      0      0    -36      0      0      0     47      0      0      0      0      0     83      0      0      0      0      0      0      0      0      0      0      0      0
      3     13     15	    286     54      4      5      2     78      0      0      0      0      0      0      0      0      0      0      0      0      0      0      0      0      0     64      0      0      0      0      0      0    106      0      0      0      0
      1     14     14	    142     99      6      7      1      0      0    100      0      0      0     85      0      0      0      0      0      0      0      0      0      0      0      0     86      0      0      0      0      5      0     17      0     38    103
      2     11     11	    276    138      7      7      2     17      0      0      0      0    -10      0      0    141     42      0      0      0      0      0      0      9      0      0      0      0      0      0      0      0      0      0      0    -18      0
      5     12     12	    207    121      7      8      2    -17      0      0      0      0      0      0      0      0      0      0      0      0      0     70      0      0      0      0      0      0      0      5      0      0      0    -40      0      0      0
      3     11     11	    355    232      7      7      4      0      0      0      0      0     64     76      0    112      0      0      0      0      0    125      0      0      0      0      0      0    106      0      0      0      0      7      0      0      0
      3     15     15	    294     92      8      8      6      0    -56      3      0      0      0     65    139      0      0    202     -1      0      0      0      0      0      0      0     37      0      0     17      0    -40      7      0      0    123      0
      1     14     11	    436    193      3      5      6     -1      0      0      0      0      0      0      0      0      0     95      0      0      0      0      0      0      0      0      0      0      0      0      0      0      0      0      0      0      0
      4     10     10	    268    142      5      7      6      0     74    186      0    110      0      0      0    102    206      0    -25    -16      0      0      0      0      0      0      0      0      0     38    -18      0      0    123      0      0    -27
      5     10     14	    336     65      6      6     10      0     13      0    161    -11      0     43      0      0      0      0      0      0      0      0      0     58      0      0      0      0      0    103      0      0      0      0      0    -27      0